2 30
661 732 
0 35 53 12 71 85 35 1
1 8 65 16 8 82 46 2
2 33 23 42 94 35 31 2
3 81 92 58 47 40 21 1
4 19 13 87 64 91 37 2
5 62 51 71 97 99 21 2
6 11 10 59 37 99 20 2
7 1 13 41 51 65 35 1
8 64 62 24 29 63 85 2
9 64 83 32 38 58 34 2
10 84 97 77 35 39 44 2
11 68 40 33 51 93 75 1
12 12 13 73 56 13 78 1
13 19 53 60 92 29 56 1
14 76 6 41 32 41 3 2
15 17 34 70 56 90 70 1
16 19 66 72 45 8 45 1
17 47 17 84 12 67 62 1
18 76 66 12 89 69 37 1
19 55 15 43 90 62 66 1
20 7 22 3 29 64 24 2
21 84 65 45 31 88 100 2
22 49 25 2 76 91 5 2
23 77 36 70 18 66 66 2
24 70 90 15 16 3 66 1
25 24 17 96 32 66 7 1
26 61 23 90 66 79 31 1
27 21 65 89 3 17 96 1
28 91 19 4 41 61 75 2
29 78 88 94 59 50 91 1
